
Gurobi 5.0.1 (linux64) logging started Tue Sep 25 12:58:24 2012


Gurobi 5.0.1 (linux64) logging started Tue Sep 25 13:06:28 2012


Gurobi 5.0.1 (linux64) logging started Tue Sep 25 13:38:53 2012


Gurobi 5.0.1 (linux64) logging started Tue Sep 25 13:40:20 2012


Gurobi 5.0.1 (linux64) logging started Tue Sep 25 13:53:07 2012

